# Solution for model r5_t36_m0_8
# Finished Task: 34 / 36
# Makespan: 693.0, Total Distance: 1346.0, Total Time: 1.3908
# R O S F
0 0 30 0.0 0.0
1 1 19 0.0 0.0
2 2 18 0.0 0.0
3 3 34 0.0 0.0
4 4 5 0.0 0.0
5 4 8 82.0 116.0
6 3 16 304.0 327.0
7 4 9 294.0 316.0
8 4 7 203.0 235.0
9 4 23 385.0 421.0
10 4 40 637.0 664.0
11 2 15 389.0 427.0
12 1 38 470.0 490.0
13 0 28 471.0 492.0
14 4 10 588.0 613.0
15 2 21 437.0 461.0
16 3 25 404.0 441.0
17 0 -1 612.0 644.0
18 2 11 355.0 376.0
19 1 29 329.0 365.0
20 -1 -1 -1.0 -1.0
21 2 27 480.0 512.0
22 1 -1 569.0 589.0
23 4 14 458.0 486.0
24 3 6 195.0 225.0
25 3 26 475.0 502.0
26 3 37 512.0 534.0
27 2 -1 540.0 562.0
28 0 17 557.0 580.0
29 1 39 407.0 441.0
30 0 33 103.0 135.0
31 0 35 312.0 334.0
32 -1 -1 -1.0 -1.0
33 0 31 282.0 312.0
34 3 24 76.0 114.0
35 0 36 350.0 379.0
36 0 13 395.0 416.0
37 3 -1 565.0 597.0
38 1 22 509.0 543.0
39 1 12 441.0 470.0
40 4 -1 664.0 693.0
